
Gurobi 10.0.2 (linux64) logging started Sun 21 Jul 2024 05:44:09 AM -05

Set parameter LogFile to value "gurobi.log"
Gurobi Optimizer version 10.0.2 build v10.0.2rc0 (linux64)

CPU model: Intel(R) Core(TM) i5-1035G1 CPU @ 1.00GHz, instruction set [SSE2|AVX|AVX2|AVX512]
Thread count: 4 physical cores, 8 logical processors, using up to 8 threads

Academic license 2446675 - for non-commercial use only - registered to mi___@epn.edu.ec
Optimize a model with 9962 rows, 4412 columns and 98879 nonzeros
Model fingerprint: 0xa100892d
Variable types: 0 continuous, 4412 integer (1241 binary)
Coefficient statistics:
  Matrix range     [5e-01, 2e+03]
  Objective range  [1e+00, 1e+00]
  Bounds range     [1e+00, 3e+03]
  RHS range        [1e+00, 5e+03]
Presolve removed 8821 rows and 3236 columns
Presolve time: 0.07s
Presolved: 1141 rows, 1176 columns, 4842 nonzeros
Variable types: 0 continuous, 1176 integer (1060 binary)

Root relaxation: objective 9.213500e+04, 561 iterations, 0.01 seconds (0.01 work units)

    Nodes    |    Current Node    |     Objective Bounds      |     Work
 Expl Unexpl |  Obj  Depth IntInf | Incumbent    BestBd   Gap | It/Node Time

H    0     0                    92135.000000 106438.000  15.5%     -    0s
     0     0          -    0      92135.0000 92135.0000  0.00%     -    0s

Explored 1 nodes (1566 simplex iterations) in 0.11 seconds (0.13 work units)
Thread count was 8 (of 8 available processors)

Solution count 1: 92135 

Optimal solution found (tolerance 1.00e-04)
Best objective 9.213500000000e+04, best bound 9.213500000000e+04, gap 0.0000%
